50	100	100	100
79	16	79
71	3	69
80	20	74
80	49	92
81	43	82
71	30	79
77	6	83
92	23	89
70	40	68
71	39	66
87	18	87
75	41	98
81	47	84
94	8	80
91	22	69
77	32	85
96	8	67
85	32	80
90	24	72
85	8	95
76	35	88
66	37	68
93	36	69
92	7	97
69	31	97
70	28	97
98	1	83
91	41	93
95	5	74
90	26	76
79	18	89
80	42	97
76	37	66
66	27	69
97	47	73
86	37	91
99	32	78
82	31	97
68	28	99
79	18	70
88	6	78
99	1	98
93	16	74
67	36	90
76	40	93
76	43	87
71	49	90
72	36	77
75	49	67
89	7	90
